4 
5 
5 
8 
3 
8 
8 
4 
6 
4 
6 
8 
2 
3 
8 
4 
2 
7 
4 
5 
5 
7 
2 
2 
4 
4 
5 
3 
2 
10 
3 
4 
3 
4 
6 
7 
4 
3 
5 
6 
7 
8 
4 
6 
5 
3 
7 
1 
5 
7 
8 
4 
4 
3 
1 
11 
7 
8 
6 
5 
8 
5 
6 
3 
5 
3 
6 
7 
6 
5 
6 
5 
7 
7 
2 
11 
10 
4 
8 
1 
4 
6 
6 
4 
5 
4 
6 
8 
8 
4 
3 
3 
10 
3 
6 
4 
6 
6 
2 
5 
